
param roll_width := 64.5;

param: WIDTHS: orders :=
         6.77    10
         7.56    40
        17.46    33
        18.76    10 ;

param nPAT := 9 ;

param nbr:  1  2  3  4  5  6  7  8  9 :=
     6.77   0  1  1  0  3  2  0  1  4
     7.56   1  0  2  1  1  4  6  5  2
    17.46   0  1  0  2  1  0  1  1  1
    18.76   3  2  2  1  1  1  0  0  0 ;
